120 150

60
47
43
45
60
48
56
56
53
58
52
59
60
48
40
59
54
59
41
48
57
47
50
46
54
56
53
60
45
46
47
60
48
51
57
51
45
46
54
43
49
44
59
49
56
54
51
51
51
55
56
49
54
40
55
60
60
51
55
49
55
57
52
57
50
41
60
41
60
50
59
45
55
43
40
41
48
46
49
54
44
44
51
53
52
48
54
48
50
43
49
51
48
42
54
60
48
47
60
48
53
45
53
46
54
47
54
54
60
60
43
52
49
50
60
59
45
60
48
60